# Solution for model r10_t36_m6_4
# Finished Task: 34 / 36
# Makespan: 797.0, Total Distance: 2019.0, Total Time: 1.5523
# R O S F
0 0 11 0.0 0.0
1 1 33 0.0 0.0
2 2 10 0.0 0.0
3 3 36 0.0 0.0
4 4 12 0.0 0.0
5 5 13 0.0 0.0
6 6 15 0.0 0.0
7 7 21 0.0 0.0
8 8 27 0.0 0.0
9 9 31 0.0 0.0
10 2 23 375.0 412.0
11 0 25 158.0 193.0
12 4 38 346.0 382.0
13 5 14 170.0 193.0
14 5 22 322.0 349.0
15 6 42 317.0 353.0
16 0 -1 749.0 771.0
17 -1 -1 -1.0 -1.0
18 3 19 437.0 472.0
19 3 35 489.0 525.0
20 7 -1 777.0 797.0
21 7 28 215.0 242.0
22 5 41 415.0 439.0
23 2 30 472.0 493.0
24 5 -1 741.0 761.0
25 0 39 439.0 472.0
26 8 -1 749.0 776.0
27 8 32 270.0 307.0
28 7 45 313.0 346.0
29 9 -1 721.0 755.0
30 2 40 550.0 588.0
31 9 29 503.0 528.0
32 8 26 439.0 465.0
33 1 34 352.0 390.0
34 1 -1 693.0 721.0
35 3 -1 693.0 721.0
36 3 18 365.0 403.0
37 -1 -1 -1.0 -1.0
38 4 43 603.0 636.0
39 0 16 715.0 749.0
40 2 -1 706.0 736.0
41 5 24 676.0 709.0
42 6 44 517.0 556.0
43 4 -1 705.0 730.0
44 6 -1 718.0 744.0
45 7 20 719.0 743.0
